Gurobi Optimizer version 9.1.2 build v9.1.2rc0 (linux64)
Thread count: 36 physical cores, 72 logical processors, using up to 32 threads
Optimize a model with 12 rows, 57 columns and 590 nonzeros
Model fingerprint: 0xf32eec78
Model has 47 quadratic constraints
Coefficient statistics:
  Matrix range     [2e-05, 3e+00]
  QMatrix range    [1e+00, 1e+00]
  QLMatrix range   [1e+00, 1e+00]
  Objective range  [8e-03, 7e-01]
  Bounds range     [1e+00, 1e+00]
  RHS range        [1e+00, 1e+00]
Presolve removed 9 rows and 0 columns

Continuous model is non-convex -- solving as a MIP.

Presolve removed 9 rows and 0 columns
Presolve time: 0.00s
Presolved: 189 rows, 57 columns, 443 nonzeros
Presolved model has 47 bilinear constraint(s)
Variable types: 57 continuous, 0 integer (0 binary)

Root relaxation: objective -1.743721e+00, 44 iterations, 0.00 seconds

    Nodes    |    Current Node    |     Objective Bounds      |     Work
 Expl Unexpl |  Obj  Depth IntInf | Incumbent    BestBd   Gap | It/Node Time

     0     0   -1.74372    0   38          -   -1.74372      -     -    0s
H    0     0                       0.6147548   -1.74372   384%     -    0s
     0     0   -1.64739    0    1    0.61475   -1.64739   368%     -    0s
H    0     0                      -1.6450460   -1.64739  0.14%     -    0s
     0     0     cutoff    0        -1.64505   -1.64505  0.00%     -    0s

Cutting planes:
  RLT: 25
  BQP: 3

Explored 1 nodes (76 simplex iterations) in 0.01 seconds
Thread count was 32 (of 72 available processors)

Solution count 2: -1.64505 0.614755 
No other solutions better than -1.64505

Optimal solution found (tolerance 1.00e-04)
Best objective -1.645045978473e+00, best bound -1.645045978473e+00, gap 0.0000%

User-callback calls 78, time in user-callback 0.00 sec
Gurobi Optimizer version 9.1.2 build v9.1.2rc0 (linux64)
Thread count: 36 physical cores, 72 logical processors, using up to 32 threads
Optimize a model with 60 rows, 312 columns and 16100 nonzeros
Model fingerprint: 0xd71b74cf
Model has 262 quadratic constraints
Coefficient statistics:
  Matrix range     [4e-07, 7e+00]
  QMatrix range    [1e+00, 1e+00]
  QLMatrix range   [1e+00, 1e+00]
  Objective range  [5e-03, 2e+00]
  Bounds range     [1e+00, 1e+00]
  RHS range        [1e+00, 1e+00]
Presolve removed 17 rows and 0 columns

Continuous model is non-convex -- solving as a MIP.

Presolve removed 17 rows and 0 columns
Presolve time: 0.01s
Presolved: 1079 rows, 312 columns, 12824 nonzeros
Presolved model has 262 bilinear constraint(s)
Variable types: 312 continuous, 0 integer (0 binary)

Root relaxation: objective -3.076167e+01, 348 iterations, 0.02 seconds

    Nodes    |    Current Node    |     Objective Bounds      |     Work
 Expl Unexpl |  Obj  Depth IntInf | Incumbent    BestBd   Gap | It/Node Time

     0     0  -30.76167    0   85          -  -30.76167      -     -    0s
     0     0  -29.12689    0   69          -  -29.12689      -     -    0s
     0     0  -29.07129    0   74          -  -29.07129      -     -    0s
     0     0  -29.01100    0   74          -  -29.01100      -     -    0s
     0     0  -29.00799    0  131          -  -29.00799      -     -    0s
     0     0  -29.00784    0  131          -  -29.00784      -     -    0s
     0     0  -29.00575    0   74          -  -29.00575      -     -    0s
     0     0  -29.00521    0   74          -  -29.00521      -     -    0s
     0     0  -29.00445    0   69          -  -29.00445      -     -    0s
     0     0  -29.00444    0   74          -  -29.00444      -     -    0s
     0     0  -29.00444    0   74          -  -29.00444      -     -    0s
H    0     0                     -26.0189968  -29.00444  11.5%     -    0s
     0     2  -29.00444    0   74  -26.01900  -29.00444  11.5%     -    0s
* 1595  1517              56     -26.0194013  -27.93605  7.37%  50.2    1s
* 1596  1517              56     -26.0194088  -27.93605  7.37%  50.2    1s
* 1597  1517              55     -26.0194098  -27.93605  7.37%  50.1    1s
* 1984  1904              90     -26.1173270  -27.93605  6.96%  45.4    1s
* 2161  1825              54     -27.2820057  -27.93605  2.40%  43.6    1s
* 2162  1825              54     -27.2820071  -27.93605  2.40%  43.5    1s
* 3065  1745              38     -27.2865936  -27.82753  1.98%  42.2    2s
* 3837  1739              40     -27.2892509  -27.74264  1.66%  39.3    2s
* 3838  1739              40     -27.2892510  -27.74264  1.66%  39.3    2s
* 4235  1713              37     -27.2897160  -27.65012  1.32%  38.1    2s
* 4238  1713              37     -27.2897332  -27.65012  1.32%  38.0    2s
* 4628  1749              49     -27.2904138  -27.65012  1.32%  36.9    2s
* 4638  1749              48     -27.2904565  -27.65012  1.32%  36.8    2s
* 5109  1773              48     -27.2904634  -27.61086  1.17%  35.7    2s
* 5435  1821              52     -27.2914576  -27.61086  1.17%  34.8    3s
* 5730  1799              54     -27.2919014  -27.57370  1.03%  34.0    3s
* 5734  1799              53     -27.2919833  -27.57370  1.03%  33.9    3s
* 5735  1799              54     -27.2919913  -27.57370  1.03%  33.9    3s
* 6240  1804              46     -27.2931677  -27.55749  0.97%  33.0    3s
* 6481  1792              56     -27.2933100  -27.55749  0.97%  32.6    3s
* 6484  1792              54     -27.2940701  -27.55749  0.97%  32.6    3s
* 6884  1784              47     -27.2944036  -27.52673  0.85%  32.0    3s
* 7020  1784              44     -27.2984277  -27.52673  0.84%  31.8    3s
* 7613  1789              50     -27.2990778  -27.49094  0.70%  31.1    3s
* 7991  1755              48     -27.2992460  -27.49094  0.70%  30.6    3s
* 8460  1798              54     -27.2993860  -27.49094  0.70%  30.0    3s
* 8648  1834              50     -27.3012998  -27.45893  0.58%  29.7    3s
* 8649  1834              50     -27.3017401  -27.45893  0.58%  29.7    3s
* 8946  1834              47     -27.3021290  -27.45893  0.57%  29.3    3s
* 9273  1856              50     -27.3024903  -27.42915  0.46%  29.0    4s
* 9378  1856              43     -27.3026881  -27.42915  0.46%  28.8    4s
* 9709  1825              52     -27.3027558  -27.42915  0.46%  28.3    4s
* 9980  1864              41     -27.3032561  -27.41800  0.42%  28.1    4s
*10033  1864              47     -27.3036907  -27.41582  0.41%  28.0    4s
*10038  1864              50     -27.3040433  -27.41582  0.41%  28.0    4s
*10093  1864              49     -27.3043178  -27.41582  0.41%  28.0    4s
*10658  1818              43     -27.3052216  -27.40109  0.35%  27.4    4s
*10814  1818              46     -27.3056097  -27.40109  0.35%  27.3    4s
*11204  1824              49     -27.3057047  -27.39692  0.33%  27.0    4s
*11518  1875              43     -27.3058864  -27.38825  0.30%  26.8    4s
*11696  1875              49     -27.3063001  -27.38825  0.30%  26.7    4s
*11697  1875              49     -27.3063003  -27.38825  0.30%  26.7    4s
*11897  1875              47     -27.3063823  -27.38825  0.30%  26.6    4s
*12110  1879              50     -27.3066766  -27.38825  0.30%  26.4    4s
*12601  2035              46     -27.3069906  -27.37678  0.26%  26.1    4s
*12605  2021              47     -27.3071458  -27.37678  0.26%  26.1    4s
*12670  2015              52     -27.3072323  -27.37609  0.25%  26.0    4s
*12673  2015              52     -27.3072341  -27.37609  0.25%  26.0    4s
*12710  1971              53     -27.3077803  -27.37609  0.25%  26.0    4s
*13144  1961              50     -27.3078941  -27.37609  0.25%  25.8    4s
*13153  1958              52     -27.3079732  -27.37609  0.25%  25.8    4s
*13154  1958              52     -27.3079751  -27.37609  0.25%  25.8    4s
 13198  1926  -27.34866   18    0  -27.30798  -27.37609  0.25%  25.7    5s
*17178  1150              57     -27.3090237  -27.37609  0.25%  29.8    6s
*17181  1057              57     -27.3094856  -27.37609  0.24%  29.8    6s
*18303   973              58     -27.3101919  -27.37609  0.24%  29.7    6s
*18305   973              59     -27.3103372  -27.37609  0.24%  29.7    6s
*19222  1157              60     -27.3122960  -27.37609  0.23%  29.6    6s
*19223  1157              61     -27.3122974  -27.37609  0.23%  29.6    6s
*23430  1890              63     -27.3134702  -27.37609  0.23%  28.5    7s
*24690  1769              61     -27.3161752  -27.37609  0.22%  28.1    7s
*24691  1769              62     -27.3161916  -27.37609  0.22%  28.1    7s
*26204  1823              67     -27.3169269  -27.37458  0.21%  27.6    8s
*26208  1823              67     -27.3170057  -27.37458  0.21%  27.6    8s
*26565  1705              66     -27.3172571  -27.36741  0.18%  27.5    8s
*30565  1768              54     -27.3172952  -27.34701  0.11%  26.4    8s
*30569  1768              55     -27.3172987  -27.34701  0.11%  26.4    8s
*30570  1766              55     -27.3173012  -27.34701  0.11%  26.4    8s
*32279  1718              53     -27.3174169  -27.34184  0.09%  25.9    9s
*35752  1698              61     -27.3174255  -27.33331  0.06%  25.0    9s
*36609  1660              58     -27.3175625  -27.33209  0.05%  24.7    9s
*37227  1687              62     -27.3175694  -27.33093  0.05%  24.5    9s
*37238  1687              62     -27.3176064  -27.33093  0.05%  24.5    9s
 38222  1765  -27.32308   37   25  -27.31761  -27.32983  0.04%  24.3   10s
*39158  1765              59     -27.3176147  -27.32927  0.04%  24.0   10s
*39159  1765              59     -27.3176165  -27.32927  0.04%  24.0   10s
*40696  1732              55     -27.3176831  -27.32761  0.04%  23.5   10s
*40699  1727              55     -27.3176973  -27.32761  0.04%  23.5   10s
*41202  1717              60     -27.3177228  -27.32670  0.03%  23.4   10s
*42594  1811              59     -27.3177270  -27.32551  0.03%  23.0   10s
*42603  1811              60     -27.3177288  -27.32551  0.03%  23.0   10s
*43190  1783              61     -27.3179072  -27.32523  0.03%  22.8   10s
*43930  1736              60     -27.3179654  -27.32468  0.02%  22.6   11s
*44373  1736              65     -27.3180035  -27.32447  0.02%  22.5   11s
*44374  1736              65     -27.3180038  -27.32447  0.02%  22.5   11s
*44751  1736              68     -27.3181033  -27.32437  0.02%  22.3   11s
*46379  1729              67     -27.3181036  -27.32333  0.02%  21.9   11s
*46563  1729              60     -27.3181441  -27.32330  0.02%  21.9   11s
*48878  1691              65     -27.3181790  -27.32247  0.02%  21.3   11s

Explored 52471 nodes (1068342 simplex iterations) in 11.97 seconds
Thread count was 32 (of 72 available processors)

Solution count 10: -27.3182 -27.3181 -27.3181 ... -27.3177

Optimal solution found (tolerance 1.00e-04)
Best objective -2.731817901889e+01, best bound -2.732086188212e+01, gap 0.0098%

User-callback calls 106142, time in user-callback 0.03 sec



objective value: -27.31817901889386
objective bound: -27.32086188211605
x_opt: [0.9999999999999999, 0.911548022189486, 0.0, 0.347964653616263, 0.0, 0.0, 1.0, 0.0, 0.0, 0.0, 1.0, 0.0, 1.0, 1.0, 0.473643010408745, 1.0, 0.0, 1.0, 0.0, 0.0, 0.0, 0.18063226957112308, 0.0, 0.5484607214417032, 0.0, 0.6086212607738422, 0.0, 1.0, 0.0, 0.0, 1.0, 1.0, 0.0, 0.6279505736940064, 1.0, 0.9200616556270189, 0.0, 1.0, 0.0, 1.0, 1.0, 0.0, 0.9092898050229232, 0.07977862899409377, 0.0, 0.016451474992680654, 0.4052227748911378, 0.4226383818192341, 0.12165208555230195, 0.0]
GUROBI solution time: 11.972692012786865




